benchmark/results/graph__10-1000-0.10-04_18/graph__10-1000-0.10-04_18_Quinton_Benders_master.lp
\ This file has been generated by DOcplex
\ ENCODING=ISO-8859-1
\Problem name: Quinton Benders_master

Maximize
 obj: z
Subject To
 c1: m_a0_proc_1 + m_a0_proc_2 + m_a0_proc_3 = 1
 c2: m_a1_proc_0 + m_a1_proc_1 = 1
 c3: m_a2_proc_0 + m_a2_proc_2 + m_a2_proc_3 = 1
 c4: m_a3_proc_0 + m_a3_proc_2 + m_a3_proc_3 = 1
 c5: m_a4_proc_0 + m_a4_proc_1 + m_a4_proc_2 + m_a4_proc_3 = 1
 c6: m_a5_proc_0 + m_a5_proc_1 + m_a5_proc_2 + m_a5_proc_3 = 1
 c7: m_a6_proc_0 + m_a6_proc_1 + m_a6_proc_3 = 1
 c8: m_a7_proc_1 = 1
 c9: m_a8_proc_0 + m_a8_proc_2 + m_a8_proc_3 = 1
 c10: m_a9_proc_0 + m_a9_proc_1 + m_a9_proc_3 = 1
 c11: K_a0_a1 + K_a1_a0 = 1
 c12: K_a0_a1 + K_a1_a0 = 1
 c13: K_a0_a2 + K_a2_a0 = 1
 c14: K_a0_a2 + K_a2_a0 = 1
 c15: K_a0_a3 + K_a3_a0 = 1
 c16: K_a0_a3 + K_a3_a0 = 1
 c17: K_a0_a4 + K_a4_a0 = 1
 c18: K_a0_a4 + K_a4_a0 = 1
 c19: K_a0_a5 + K_a5_a0 = 1
 c20: K_a0_a5 + K_a5_a0 = 1
 c21: K_a0_a6 + K_a6_a0 = 1
 c22: K_a0_a6 + K_a6_a0 = 1
 c23: K_a0_a7 + K_a7_a0 = 1
 c24: K_a0_a7 + K_a7_a0 = 1
 c25: K_a0_a8 + K_a8_a0 = 1
 c26: K_a0_a8 + K_a8_a0 = 1
 c27: K_a0_a9 + K_a9_a0 = 1
 c28: K_a0_a9 + K_a9_a0 = 1
 c29: K_a1_a2 + K_a2_a1 = 1
 c30: K_a1_a2 + K_a2_a1 = 1
 c31: K_a1_a3 + K_a3_a1 = 1
 c32: K_a1_a3 + K_a3_a1 = 1
 c33: K_a1_a4 + K_a4_a1 = 1
 c34: K_a1_a4 + K_a4_a1 = 1
 c35: K_a1_a5 + K_a5_a1 = 1
 c36: K_a1_a5 + K_a5_a1 = 1
 c37: K_a1_a6 + K_a6_a1 = 1
 c38: K_a1_a6 + K_a6_a1 = 1
 c39: K_a1_a7 + K_a7_a1 = 1
 c40: K_a1_a7 + K_a7_a1 = 1
 c41: K_a1_a8 + K_a8_a1 = 1
 c42: K_a1_a8 + K_a8_a1 = 1
 c43: K_a1_a9 + K_a9_a1 = 1
 c44: K_a1_a9 + K_a9_a1 = 1
 c45: K_a2_a3 + K_a3_a2 = 1
 c46: K_a2_a3 + K_a3_a2 = 1
 c47: K_a2_a4 + K_a4_a2 = 1
 c48: K_a2_a4 + K_a4_a2 = 1
 c49: K_a2_a5 + K_a5_a2 = 1
 c50: K_a2_a5 + K_a5_a2 = 1
 c51: K_a2_a6 + K_a6_a2 = 1
 c52: K_a2_a6 + K_a6_a2 = 1
 c53: K_a2_a8 + K_a8_a2 = 1
 c54: K_a2_a8 + K_a8_a2 = 1
 c55: K_a2_a9 + K_a9_a2 = 1
 c56: K_a2_a9 + K_a9_a2 = 1
 c57: K_a3_a4 + K_a4_a3 = 1
 c58: K_a3_a4 + K_a4_a3 = 1
 c59: K_a3_a5 + K_a5_a3 = 1
 c60: K_a3_a5 + K_a5_a3 = 1
 c61: K_a3_a6 + K_a6_a3 = 1
 c62: K_a3_a6 + K_a6_a3 = 1
 c63: K_a3_a8 + K_a8_a3 = 1
 c64: K_a3_a8 + K_a8_a3 = 1
 c65: K_a3_a9 + K_a9_a3 = 1
 c66: K_a3_a9 + K_a9_a3 = 1
 c67: K_a4_a5 + K_a5_a4 = 1
 c68: K_a4_a5 + K_a5_a4 = 1
 c69: K_a4_a6 + K_a6_a4 = 1
 c70: K_a4_a6 + K_a6_a4 = 1
 c71: K_a4_a7 + K_a7_a4 = 1
 c72: K_a4_a7 + K_a7_a4 = 1
 c73: K_a4_a8 + K_a8_a4 = 1
 c74: K_a4_a8 + K_a8_a4 = 1
 c75: K_a4_a9 + K_a9_a4 = 1
 c76: K_a4_a9 + K_a9_a4 = 1
 c77: K_a5_a6 + K_a6_a5 = 1
 c78: K_a5_a6 + K_a6_a5 = 1
 c79: K_a5_a7 + K_a7_a5 = 1
 c80: K_a5_a7 + K_a7_a5 = 1
 c81: K_a5_a8 + K_a8_a5 = 1
 c82: K_a5_a8 + K_a8_a5 = 1
 c83: K_a5_a9 + K_a9_a5 = 1
 c84: K_a5_a9 + K_a9_a5 = 1
 c85: K_a6_a7 + K_a7_a6 = 1
 c86: K_a6_a7 + K_a7_a6 = 1
 c87: K_a6_a8 + K_a8_a6 = 1
 c88: K_a6_a8 + K_a8_a6 = 1
 c89: K_a6_a9 + K_a9_a6 = 1
 c90: K_a6_a9 + K_a9_a6 = 1
 c91: K_a7_a9 + K_a9_a7 = 1
 c92: K_a7_a9 + K_a9_a7 = 1
 c93: K_a8_a9 + K_a9_a8 = 1
 c94: K_a8_a9 + K_a9_a8 = 1
 c95: z <= 99999999989999992832
 c96: - 1282 m_a0_proc_1 + w_a3 - w_a0 >= -1281.901270772239
 c97: K_a0_a1 - 1282 m_a0_proc_1 - 1282 m_a1_proc_1 + w_a1 - w_a0 >= 
      -2563.901270772239
 c98: K_a0_a4 - 1282 m_a0_proc_1 - 1282 m_a4_proc_1 + w_a4 - w_a0 >= 
      -2563.901270772239
 c99: K_a0_a5 - 1282 m_a0_proc_1 - 1282 m_a5_proc_1 + w_a5 - w_a0 >= 
      -2563.901270772239
 c100: K_a0_a6 - 1282 m_a0_proc_1 - 1282 m_a6_proc_1 + w_a6 - w_a0 >= 
       -2563.901270772239
 c101: K_a0_a7 - 1282 m_a0_proc_1 - 1282 m_a7_proc_1 + w_a7 - w_a0 >= 
       -2563.901270772239
 c102: K_a0_a9 - 1282 m_a0_proc_1 - 1282 m_a9_proc_1 + w_a9 - w_a0 >= 
       -2563.901270772239
 c103: - 1282 m_a0_proc_2 + w_a3 - w_a0 >= -1281.908646583133
 c104: K_a0_a2 - 1282 m_a0_proc_2 - 1282 m_a2_proc_2 + w_a2 - w_a0 >= 
       -2563.908646583133
 c105: K_a0_a3 - 1282 m_a0_proc_2 - 1282 m_a3_proc_2 + w_a3 - w_a0 >= 
       -2563.908646583133
 c106: K_a0_a4 - 1282 m_a0_proc_2 - 1282 m_a4_proc_2 + w_a4 - w_a0 >= 
       -2563.908646583133
 c107: K_a0_a5 - 1282 m_a0_proc_2 - 1282 m_a5_proc_2 + w_a5 - w_a0 >= 
       -2563.908646583133
 c108: K_a0_a8 - 1282 m_a0_proc_2 - 1282 m_a8_proc_2 + w_a8 - w_a0 >= 
       -2563.908646583133
 c109: - 1282 m_a0_proc_3 + w_a3 - w_a0 >= -1281.926064160668
 c110: K_a0_a2 - 1282 m_a0_proc_3 - 1282 m_a2_proc_3 + w_a2 - w_a0 >= 
       -2563.926064160668
 c111: K_a0_a3 - 1282 m_a0_proc_3 - 1282 m_a3_proc_3 + w_a3 - w_a0 >= 
       -2563.926064160668
 c112: K_a0_a4 - 1282 m_a0_proc_3 - 1282 m_a4_proc_3 + w_a4 - w_a0 >= 
       -2563.926064160668
 c113: K_a0_a5 - 1282 m_a0_proc_3 - 1282 m_a5_proc_3 + w_a5 - w_a0 >= 
       -2563.926064160668
 c114: K_a0_a6 - 1282 m_a0_proc_3 - 1282 m_a6_proc_3 + w_a6 - w_a0 >= 
       -2563.926064160668
 c115: K_a0_a8 - 1282 m_a0_proc_3 - 1282 m_a8_proc_3 + w_a8 - w_a0 >= 
       -2563.926064160668
 c116: K_a0_a9 - 1282 m_a0_proc_3 - 1282 m_a9_proc_3 + w_a9 - w_a0 >= 
       -2563.926064160668
 c117: - 1282 m_a1_proc_0 + w_a0 - w_a1 >= -1281.943659468586
 c118: K_a1_a2 - 1282 m_a1_proc_0 - 1282 m_a2_proc_0 + w_a2 - w_a1 >= 
       -2563.943659468586
 c119: K_a1_a3 - 1282 m_a1_proc_0 - 1282 m_a3_proc_0 + w_a3 - w_a1 >= 
       -2563.943659468586
 c120: K_a1_a4 - 1282 m_a1_proc_0 - 1282 m_a4_proc_0 + w_a4 - w_a1 >= 
       -2563.943659468586
 c121: K_a1_a5 - 1282 m_a1_proc_0 - 1282 m_a5_proc_0 + w_a5 - w_a1 >= 
       -2563.943659468586
 c122: K_a1_a6 - 1282 m_a1_proc_0 - 1282 m_a6_proc_0 + w_a6 - w_a1 >= 
       -2563.943659468586
 c123: K_a1_a8 - 1282 m_a1_proc_0 - 1282 m_a8_proc_0 + w_a8 - w_a1 >= 
       -2563.943659468586
 c124: K_a1_a9 - 1282 m_a1_proc_0 - 1282 m_a9_proc_0 + w_a9 - w_a1 >= 
       -2563.943659468586
 c125: - 1282 m_a1_proc_1 + w_a0 - w_a1 >= -1281.902959210877
 c126: K_a1_a0 - 1282 m_a0_proc_1 - 1282 m_a1_proc_1 + w_a0 - w_a1 >= 
       -2563.902959210877
 c127: K_a1_a4 - 1282 m_a1_proc_1 - 1282 m_a4_proc_1 + w_a4 - w_a1 >= 
       -2563.902959210877
 c128: K_a1_a5 - 1282 m_a1_proc_1 - 1282 m_a5_proc_1 + w_a5 - w_a1 >= 
       -2563.902959210877
 c129: K_a1_a6 - 1282 m_a1_proc_1 - 1282 m_a6_proc_1 + w_a6 - w_a1 >= 
       -2563.902959210877
 c130: K_a1_a7 - 1282 m_a1_proc_1 - 1282 m_a7_proc_1 + w_a7 - w_a1 >= 
       -2563.902959210877
 c131: K_a1_a9 - 1282 m_a1_proc_1 - 1282 m_a9_proc_1 + w_a9 - w_a1 >= 
       -2563.902959210877
 c132: - 1282 m_a2_proc_0 + w_a0 - w_a2 >= -1281.931307206967
 c133: - 1282 m_a2_proc_0 + w_a5 - w_a2 >= -1282.931307206967
 c134: - 1282 m_a2_proc_0 + w_a8 - w_a2 >= -1281.931307206967
 c135: K_a2_a1 - 1282 m_a1_proc_0 - 1282 m_a2_proc_0 + w_a1 - w_a2 >= 
       -2563.931307206967
 c136: K_a2_a3 - 1282 m_a2_proc_0 - 1282 m_a3_proc_0 + w_a3 - w_a2 >= 
       -2563.931307206967
 c137: K_a2_a4 - 1282 m_a2_proc_0 - 1282 m_a4_proc_0 + w_a4 - w_a2 >= 
       -2563.931307206967
 c138: K_a2_a5 - 1282 m_a2_proc_0 - 1282 m_a5_proc_0 + w_a5 - w_a2 >= 
       -2563.931307206967
 c139: K_a2_a6 - 1282 m_a2_proc_0 - 1282 m_a6_proc_0 + w_a6 - w_a2 >= 
       -2563.931307206967
 c140: K_a2_a8 - 1282 m_a2_proc_0 - 1282 m_a8_proc_0 + w_a8 - w_a2 >= 
       -2563.931307206967
 c141: K_a2_a9 - 1282 m_a2_proc_0 - 1282 m_a9_proc_0 + w_a9 - w_a2 >= 
       -2563.931307206967
 c142: - 1282 m_a2_proc_2 + w_a0 - w_a2 >= -1281.922331822625
 c143: - 1282 m_a2_proc_2 + w_a5 - w_a2 >= -1282.922331822625
 c144: - 1282 m_a2_proc_2 + w_a8 - w_a2 >= -1281.922331822625
 c145: K_a2_a0 - 1282 m_a0_proc_2 - 1282 m_a2_proc_2 + w_a0 - w_a2 >= 
       -2563.922331822625
 c146: K_a2_a3 - 1282 m_a2_proc_2 - 1282 m_a3_proc_2 + w_a3 - w_a2 >= 
       -2563.922331822625
 c147: K_a2_a4 - 1282 m_a2_proc_2 - 1282 m_a4_proc_2 + w_a4 - w_a2 >= 
       -2563.922331822625
 c148: K_a2_a5 - 1282 m_a2_proc_2 - 1282 m_a5_proc_2 + w_a5 - w_a2 >= 
       -2563.922331822625
 c149: K_a2_a8 - 1282 m_a2_proc_2 - 1282 m_a8_proc_2 + w_a8 - w_a2 >= 
       -2563.922331822625
 c150: - 1282 m_a2_proc_3 + w_a0 - w_a2 >= -1281.974851150804
 c151: - 1282 m_a2_proc_3 + w_a5 - w_a2 >= -1282.974851150804
 c152: - 1282 m_a2_proc_3 + w_a8 - w_a2 >= -1281.974851150804
 c153: K_a2_a0 - 1282 m_a0_proc_3 - 1282 m_a2_proc_3 + w_a0 - w_a2 >= 
       -2563.974851150804
 c154: K_a2_a3 - 1282 m_a2_proc_3 - 1282 m_a3_proc_3 + w_a3 - w_a2 >= 
       -2563.974851150804
 c155: K_a2_a4 - 1282 m_a2_proc_3 - 1282 m_a4_proc_3 + w_a4 - w_a2 >= 
       -2563.974851150804
 c156: K_a2_a5 - 1282 m_a2_proc_3 - 1282 m_a5_proc_3 + w_a5 - w_a2 >= 
       -2563.974851150804
 c157: K_a2_a6 - 1282 m_a2_proc_3 - 1282 m_a6_proc_3 + w_a6 - w_a2 >= 
       -2563.974851150804
 c158: K_a2_a8 - 1282 m_a2_proc_3 - 1282 m_a8_proc_3 + w_a8 - w_a2 >= 
       -2563.974851150804
 c159: K_a2_a9 - 1282 m_a2_proc_3 - 1282 m_a9_proc_3 + w_a9 - w_a2 >= 
       -2563.974851150804
 c160: - 1282 m_a3_proc_0 + w_a4 - w_a3 >= -1281.910957078112
 c161: K_a3_a1 - 1282 m_a1_proc_0 - 1282 m_a3_proc_0 + w_a1 - w_a3 >= 
       -2563.910957078112
 c162: K_a3_a2 - 1282 m_a2_proc_0 - 1282 m_a3_proc_0 + w_a2 - w_a3 >= 
       -2563.910957078112
 c163: K_a3_a4 - 1282 m_a3_proc_0 - 1282 m_a4_proc_0 + w_a4 - w_a3 >= 
       -2563.910957078112
 c164: K_a3_a5 - 1282 m_a3_proc_0 - 1282 m_a5_proc_0 + w_a5 - w_a3 >= 
       -2563.910957078112
 c165: K_a3_a6 - 1282 m_a3_proc_0 - 1282 m_a6_proc_0 + w_a6 - w_a3 >= 
       -2563.910957078112
 c166: K_a3_a8 - 1282 m_a3_proc_0 - 1282 m_a8_proc_0 + w_a8 - w_a3 >= 
       -2563.910957078112
 c167: K_a3_a9 - 1282 m_a3_proc_0 - 1282 m_a9_proc_0 + w_a9 - w_a3 >= 
       -2563.910957078112
 c168: - 1282 m_a3_proc_2 + w_a4 - w_a3 >= -1281.894161556918
 c169: K_a3_a0 - 1282 m_a0_proc_2 - 1282 m_a3_proc_2 + w_a0 - w_a3 >= 
       -2563.894161556918
 c170: K_a3_a2 - 1282 m_a2_proc_2 - 1282 m_a3_proc_2 + w_a2 - w_a3 >= 
       -2563.894161556918
 c171: K_a3_a4 - 1282 m_a3_proc_2 - 1282 m_a4_proc_2 + w_a4 - w_a3 >= 
       -2563.894161556918
 c172: K_a3_a5 - 1282 m_a3_proc_2 - 1282 m_a5_proc_2 + w_a5 - w_a3 >= 
       -2563.894161556918
 c173: K_a3_a8 - 1282 m_a3_proc_2 - 1282 m_a8_proc_2 + w_a8 - w_a3 >= 
       -2563.894161556918
 c174: - 1282 m_a3_proc_3 + w_a4 - w_a3 >= -1281.910779347729
 c175: K_a3_a0 - 1282 m_a0_proc_3 - 1282 m_a3_proc_3 + w_a0 - w_a3 >= 
       -2563.910779347730
 c176: K_a3_a2 - 1282 m_a2_proc_3 - 1282 m_a3_proc_3 + w_a2 - w_a3 >= 
       -2563.910779347730
 c177: K_a3_a4 - 1282 m_a3_proc_3 - 1282 m_a4_proc_3 + w_a4 - w_a3 >= 
       -2563.910779347730
 c178: K_a3_a5 - 1282 m_a3_proc_3 - 1282 m_a5_proc_3 + w_a5 - w_a3 >= 
       -2563.910779347730
 c179: K_a3_a6 - 1282 m_a3_proc_3 - 1282 m_a6_proc_3 + w_a6 - w_a3 >= 
       -2563.910779347730
 c180: K_a3_a8 - 1282 m_a3_proc_3 - 1282 m_a8_proc_3 + w_a8 - w_a3 >= 
       -2563.910779347730
 c181: K_a3_a9 - 1282 m_a3_proc_3 - 1282 m_a9_proc_3 + w_a9 - w_a3 >= 
       -2563.910779347730
 c182: - 1282 m_a4_proc_0 + w_a8 - w_a4 >= -1281.917444237092
 c183: - 1282 m_a4_proc_0 >= -1282.917444237092
 c184: K_a4_a1 - 1282 m_a1_proc_0 - 1282 m_a4_proc_0 + w_a1 - w_a4 >= 
       -2563.917444237092
 c185: K_a4_a2 - 1282 m_a2_proc_0 - 1282 m_a4_proc_0 + w_a2 - w_a4 >= 
       -2563.917444237092
 c186: K_a4_a3 - 1282 m_a3_proc_0 - 1282 m_a4_proc_0 + w_a3 - w_a4 >= 
       -2563.917444237092
 c187: K_a4_a5 - 1282 m_a4_proc_0 - 1282 m_a5_proc_0 + w_a5 - w_a4 >= 
       -2563.917444237092
 c188: K_a4_a6 - 1282 m_a4_proc_0 - 1282 m_a6_proc_0 + w_a6 - w_a4 >= 
       -2563.917444237092
 c189: K_a4_a8 - 1282 m_a4_proc_0 - 1282 m_a8_proc_0 + w_a8 - w_a4 >= 
       -2563.917444237092
 c190: K_a4_a9 - 1282 m_a4_proc_0 - 1282 m_a9_proc_0 + w_a9 - w_a4 >= 
       -2563.917444237092
 c191: - 1282 m_a4_proc_1 + w_a8 - w_a4 >= -1281.898071625344
 c192: - 1282 m_a4_proc_1 >= -1282.898071625344
 c193: K_a4_a0 - 1282 m_a0_proc_1 - 1282 m_a4_proc_1 + w_a0 - w_a4 >= 
       -2563.898071625345
 c194: K_a4_a1 - 1282 m_a1_proc_1 - 1282 m_a4_proc_1 + w_a1 - w_a4 >= 
       -2563.898071625345
 c195: K_a4_a5 - 1282 m_a4_proc_1 - 1282 m_a5_proc_1 + w_a5 - w_a4 >= 
       -2563.898071625345
 c196: K_a4_a6 - 1282 m_a4_proc_1 - 1282 m_a6_proc_1 + w_a6 - w_a4 >= 
       -2563.898071625345
 c197: K_a4_a7 - 1282 m_a4_proc_1 - 1282 m_a7_proc_1 + w_a7 - w_a4 >= 
       -2563.898071625345
 c198: K_a4_a9 - 1282 m_a4_proc_1 - 1282 m_a9_proc_1 + w_a9 - w_a4 >= 
       -2563.898071625345
 c199: - 1282 m_a4_proc_2 + w_a8 - w_a4 >= -1281.936461388074
 c200: - 1282 m_a4_proc_2 >= -1282.936461388074
 c201: K_a4_a0 - 1282 m_a0_proc_2 - 1282 m_a4_proc_2 + w_a0 - w_a4 >= 
       -2563.936461388074
 c202: K_a4_a2 - 1282 m_a2_proc_2 - 1282 m_a4_proc_2 + w_a2 - w_a4 >= 
       -2563.936461388074
 c203: K_a4_a3 - 1282 m_a3_proc_2 - 1282 m_a4_proc_2 + w_a3 - w_a4 >= 
       -2563.936461388074
 c204: K_a4_a5 - 1282 m_a4_proc_2 - 1282 m_a5_proc_2 + w_a5 - w_a4 >= 
       -2563.936461388074
 c205: K_a4_a8 - 1282 m_a4_proc_2 - 1282 m_a8_proc_2 + w_a8 - w_a4 >= 
       -2563.936461388074
 c206: - 1282 m_a4_proc_3 + w_a8 - w_a4 >= -1281.929263307562
 c207: - 1282 m_a4_proc_3 >= -1282.929263307562
 c208: K_a4_a0 - 1282 m_a0_proc_3 - 1282 m_a4_proc_3 + w_a0 - w_a4 >= 
       -2563.929263307562
 c209: K_a4_a2 - 1282 m_a2_proc_3 - 1282 m_a4_proc_3 + w_a2 - w_a4 >= 
       -2563.929263307562
 c210: K_a4_a3 - 1282 m_a3_proc_3 - 1282 m_a4_proc_3 + w_a3 - w_a4 >= 
       -2563.929263307562
 c211: K_a4_a5 - 1282 m_a4_proc_3 - 1282 m_a5_proc_3 + w_a5 - w_a4 >= 
       -2563.929263307562
 c212: K_a4_a6 - 1282 m_a4_proc_3 - 1282 m_a6_proc_3 + w_a6 - w_a4 >= 
       -2563.929263307562
 c213: K_a4_a8 - 1282 m_a4_proc_3 - 1282 m_a8_proc_3 + w_a8 - w_a4 >= 
       -2563.929263307562
 c214: K_a4_a9 - 1282 m_a4_proc_3 - 1282 m_a9_proc_3 + w_a9 - w_a4 >= 
       -2563.929263307562
 c215: - 1282 m_a5_proc_0 + w_a6 - w_a5 >= -1281.899582333600
 c216: - 1282 m_a5_proc_0 + w_a1 - w_a5 >= -1281.899582333600
 c217: K_a5_a1 - 1282 m_a1_proc_0 - 1282 m_a5_proc_0 + w_a1 - w_a5 >= 
       -2563.899582333600
 c218: K_a5_a2 - 1282 m_a2_proc_0 - 1282 m_a5_proc_0 + w_a2 - w_a5 >= 
       -2563.899582333600
 c219: K_a5_a3 - 1282 m_a3_proc_0 - 1282 m_a5_proc_0 + w_a3 - w_a5 >= 
       -2563.899582333600
 c220: K_a5_a4 - 1282 m_a4_proc_0 - 1282 m_a5_proc_0 + w_a4 - w_a5 >= 
       -2563.899582333600
 c221: K_a5_a6 - 1282 m_a5_proc_0 - 1282 m_a6_proc_0 + w_a6 - w_a5 >= 
       -2563.899582333600
 c222: K_a5_a8 - 1282 m_a5_proc_0 - 1282 m_a8_proc_0 + w_a8 - w_a5 >= 
       -2563.899582333600
 c223: K_a5_a9 - 1282 m_a5_proc_0 - 1282 m_a9_proc_0 + w_a9 - w_a5 >= 
       -2563.899582333600
 c224: - 1282 m_a5_proc_1 + w_a6 - w_a5 >= -1281.916999911135
 c225: - 1282 m_a5_proc_1 + w_a1 - w_a5 >= -1281.916999911135
 c226: K_a5_a0 - 1282 m_a0_proc_1 - 1282 m_a5_proc_1 + w_a0 - w_a5 >= 
       -2563.916999911135
 c227: K_a5_a1 - 1282 m_a1_proc_1 - 1282 m_a5_proc_1 + w_a1 - w_a5 >= 
       -2563.916999911135
 c228: K_a5_a4 - 1282 m_a4_proc_1 - 1282 m_a5_proc_1 + w_a4 - w_a5 >= 
       -2563.916999911135
 c229: K_a5_a6 - 1282 m_a5_proc_1 - 1282 m_a6_proc_1 + w_a6 - w_a5 >= 
       -2563.916999911135
 c230: K_a5_a7 - 1282 m_a5_proc_1 - 1282 m_a7_proc_1 + w_a7 - w_a5 >= 
       -2563.916999911135
 c231: K_a5_a9 - 1282 m_a5_proc_1 - 1282 m_a9_proc_1 + w_a9 - w_a5 >= 
       -2563.916999911135
 c232: - 1282 m_a5_proc_2 + w_a6 - w_a5 >= -1281.901181907047
 c233: - 1282 m_a5_proc_2 + w_a1 - w_a5 >= -1281.901181907047
 c234: K_a5_a0 - 1282 m_a0_proc_2 - 1282 m_a5_proc_2 + w_a0 - w_a5 >= 
       -2563.901181907047
 c235: K_a5_a2 - 1282 m_a2_proc_2 - 1282 m_a5_proc_2 + w_a2 - w_a5 >= 
       -2563.901181907047
 c236: K_a5_a3 - 1282 m_a3_proc_2 - 1282 m_a5_proc_2 + w_a3 - w_a5 >= 
       -2563.901181907047
 c237: K_a5_a4 - 1282 m_a4_proc_2 - 1282 m_a5_proc_2 + w_a4 - w_a5 >= 
       -2563.901181907047
 c238: K_a5_a8 - 1282 m_a5_proc_2 - 1282 m_a8_proc_2 + w_a8 - w_a5 >= 
       -2563.901181907047
 c239: - 1282 m_a5_proc_3 + w_a6 - w_a5 >= -1281.923753665689
 c240: - 1282 m_a5_proc_3 + w_a1 - w_a5 >= -1281.923753665689
 c241: K_a5_a0 - 1282 m_a0_proc_3 - 1282 m_a5_proc_3 + w_a0 - w_a5 >= 
       -2563.923753665689
 c242: K_a5_a2 - 1282 m_a2_proc_3 - 1282 m_a5_proc_3 + w_a2 - w_a5 >= 
       -2563.923753665689
 c243: K_a5_a3 - 1282 m_a3_proc_3 - 1282 m_a5_proc_3 + w_a3 - w_a5 >= 
       -2563.923753665689
 c244: K_a5_a4 - 1282 m_a4_proc_3 - 1282 m_a5_proc_3 + w_a4 - w_a5 >= 
       -2563.923753665689
 c245: K_a5_a6 - 1282 m_a5_proc_3 - 1282 m_a6_proc_3 + w_a6 - w_a5 >= 
       -2563.923753665689
 c246: K_a5_a8 - 1282 m_a5_proc_3 - 1282 m_a8_proc_3 + w_a8 - w_a5 >= 
       -2563.923753665689
 c247: K_a5_a9 - 1282 m_a5_proc_3 - 1282 m_a9_proc_3 + w_a9 - w_a5 >= 
       -2563.923753665689
 c248: - 1282 m_a6_proc_0 + w_a7 - w_a6 >= -1281.914867146539
 c249: - 1282 m_a6_proc_0 + w_a2 - w_a6 >= -1281.914867146539
 c250: - 1282 m_a6_proc_0 + w_a9 - w_a6 >= -1281.914867146539
 c251: K_a6_a1 - 1282 m_a1_proc_0 - 1282 m_a6_proc_0 + w_a1 - w_a6 >= 
       -2563.914867146539
 c252: K_a6_a2 - 1282 m_a2_proc_0 - 1282 m_a6_proc_0 + w_a2 - w_a6 >= 
       -2563.914867146539
 c253: K_a6_a3 - 1282 m_a3_proc_0 - 1282 m_a6_proc_0 + w_a3 - w_a6 >= 
       -2563.914867146539
 c254: K_a6_a4 - 1282 m_a4_proc_0 - 1282 m_a6_proc_0 + w_a4 - w_a6 >= 
       -2563.914867146539
 c255: K_a6_a5 - 1282 m_a5_proc_0 - 1282 m_a6_proc_0 + w_a5 - w_a6 >= 
       -2563.914867146539
 c256: K_a6_a8 - 1282 m_a6_proc_0 - 1282 m_a8_proc_0 + w_a8 - w_a6 >= 
       -2563.914867146539
 c257: K_a6_a9 - 1282 m_a6_proc_0 - 1282 m_a9_proc_0 + w_a9 - w_a6 >= 
       -2563.914867146539
 c258: - 1282 m_a6_proc_1 + w_a7 - w_a6 >= -1281.914245090198
 c259: - 1282 m_a6_proc_1 + w_a2 - w_a6 >= -1281.914245090198
 c260: - 1282 m_a6_proc_1 + w_a9 - w_a6 >= -1281.914245090198
 c261: K_a6_a0 - 1282 m_a0_proc_1 - 1282 m_a6_proc_1 + w_a0 - w_a6 >= 
       -2563.914245090198
 c262: K_a6_a1 - 1282 m_a1_proc_1 - 1282 m_a6_proc_1 + w_a1 - w_a6 >= 
       -2563.914245090198
 c263: K_a6_a4 - 1282 m_a4_proc_1 - 1282 m_a6_proc_1 + w_a4 - w_a6 >= 
       -2563.914245090198
 c264: K_a6_a5 - 1282 m_a5_proc_1 - 1282 m_a6_proc_1 + w_a5 - w_a6 >= 
       -2563.914245090198
 c265: K_a6_a7 - 1282 m_a6_proc_1 - 1282 m_a7_proc_1 + w_a7 - w_a6 >= 
       -2563.914245090198
 c266: K_a6_a9 - 1282 m_a6_proc_1 - 1282 m_a9_proc_1 + w_a9 - w_a6 >= 
       -2563.914245090198
 c267: - 1282 m_a6_proc_3 + w_a7 - w_a6 >= -1281.918777214965
 c268: - 1282 m_a6_proc_3 + w_a2 - w_a6 >= -1281.918777214965
 c269: - 1282 m_a6_proc_3 + w_a9 - w_a6 >= -1281.918777214965
 c270: K_a6_a0 - 1282 m_a0_proc_3 - 1282 m_a6_proc_3 + w_a0 - w_a6 >= 
       -2563.918777214965
 c271: K_a6_a2 - 1282 m_a2_proc_3 - 1282 m_a6_proc_3 + w_a2 - w_a6 >= 
       -2563.918777214965
 c272: K_a6_a3 - 1282 m_a3_proc_3 - 1282 m_a6_proc_3 + w_a3 - w_a6 >= 
       -2563.918777214965
 c273: K_a6_a4 - 1282 m_a4_proc_3 - 1282 m_a6_proc_3 + w_a4 - w_a6 >= 
       -2563.918777214965
 c274: K_a6_a5 - 1282 m_a5_proc_3 - 1282 m_a6_proc_3 + w_a5 - w_a6 >= 
       -2563.918777214965
 c275: K_a6_a8 - 1282 m_a6_proc_3 - 1282 m_a8_proc_3 + w_a8 - w_a6 >= 
       -2563.918777214965
 c276: K_a6_a9 - 1282 m_a6_proc_3 - 1282 m_a9_proc_3 + w_a9 - w_a6 >= 
       -2563.918777214965
 c277: K_a7_a0 - 1282 m_a0_proc_1 - 1282 m_a7_proc_1 + w_a0 - w_a7 >= 
       -2563.888740780236
 c278: K_a7_a1 - 1282 m_a1_proc_1 - 1282 m_a7_proc_1 + w_a1 - w_a7 >= 
       -2563.888740780236
 c279: K_a7_a4 - 1282 m_a4_proc_1 - 1282 m_a7_proc_1 + w_a4 - w_a7 >= 
       -2563.888740780236
 c280: K_a7_a5 - 1282 m_a5_proc_1 - 1282 m_a7_proc_1 + w_a5 - w_a7 >= 
       -2563.888740780236
 c281: K_a7_a6 - 1282 m_a6_proc_1 - 1282 m_a7_proc_1 + w_a6 - w_a7 >= 
       -2563.888740780236
 c282: K_a7_a9 - 1282 m_a7_proc_1 - 1282 m_a9_proc_1 + w_a9 - w_a7 >= 
       -2563.888740780236
 c283: - 1282 m_a8_proc_0 + w_a3 - w_a8 >= -1282.906513818537
 c284: - 1282 m_a8_proc_0 + w_a7 - w_a8 >= -1281.906513818537
 c285: K_a8_a1 - 1282 m_a1_proc_0 - 1282 m_a8_proc_0 + w_a1 - w_a8 >= 
       -2563.906513818537
 c286: K_a8_a2 - 1282 m_a2_proc_0 - 1282 m_a8_proc_0 + w_a2 - w_a8 >= 
       -2563.906513818537
 c287: K_a8_a3 - 1282 m_a3_proc_0 - 1282 m_a8_proc_0 + w_a3 - w_a8 >= 
       -2563.906513818537
 c288: K_a8_a4 - 1282 m_a4_proc_0 - 1282 m_a8_proc_0 + w_a4 - w_a8 >= 
       -2563.906513818537
 c289: K_a8_a5 - 1282 m_a5_proc_0 - 1282 m_a8_proc_0 + w_a5 - w_a8 >= 
       -2563.906513818537
 c290: K_a8_a6 - 1282 m_a6_proc_0 - 1282 m_a8_proc_0 + w_a6 - w_a8 >= 
       -2563.906513818537
 c291: K_a8_a9 - 1282 m_a8_proc_0 - 1282 m_a9_proc_0 + w_a9 - w_a8 >= 
       -2563.906513818537
 c292: - 1282 m_a8_proc_2 + w_a3 - w_a8 >= -1282.903581267218
 c293: - 1282 m_a8_proc_2 + w_a7 - w_a8 >= -1281.903581267218
 c294: K_a8_a0 - 1282 m_a0_proc_2 - 1282 m_a8_proc_2 + w_a0 - w_a8 >= 
       -2563.903581267218
 c295: K_a8_a2 - 1282 m_a2_proc_2 - 1282 m_a8_proc_2 + w_a2 - w_a8 >= 
       -2563.903581267218
 c296: K_a8_a3 - 1282 m_a3_proc_2 - 1282 m_a8_proc_2 + w_a3 - w_a8 >= 
       -2563.903581267218
 c297: K_a8_a4 - 1282 m_a4_proc_2 - 1282 m_a8_proc_2 + w_a4 - w_a8 >= 
       -2563.903581267218
 c298: K_a8_a5 - 1282 m_a5_proc_2 - 1282 m_a8_proc_2 + w_a5 - w_a8 >= 
       -2563.903581267218
 c299: - 1282 m_a8_proc_3 + w_a3 - w_a8 >= -1282.886074824491
 c300: - 1282 m_a8_proc_3 + w_a7 - w_a8 >= -1281.886074824491
 c301: K_a8_a0 - 1282 m_a0_proc_3 - 1282 m_a8_proc_3 + w_a0 - w_a8 >= 
       -2563.886074824491
 c302: K_a8_a2 - 1282 m_a2_proc_3 - 1282 m_a8_proc_3 + w_a2 - w_a8 >= 
       -2563.886074824491
 c303: K_a8_a3 - 1282 m_a3_proc_3 - 1282 m_a8_proc_3 + w_a3 - w_a8 >= 
       -2563.886074824491
 c304: K_a8_a4 - 1282 m_a4_proc_3 - 1282 m_a8_proc_3 + w_a4 - w_a8 >= 
       -2563.886074824491
 c305: K_a8_a5 - 1282 m_a5_proc_3 - 1282 m_a8_proc_3 + w_a5 - w_a8 >= 
       -2563.886074824491
 c306: K_a8_a6 - 1282 m_a6_proc_3 - 1282 m_a8_proc_3 + w_a6 - w_a8 >= 
       -2563.886074824491
 c307: K_a8_a9 - 1282 m_a8_proc_3 - 1282 m_a9_proc_3 + w_a9 - w_a8 >= 
       -2563.886074824491
 c308: - 1282 m_a9_proc_0 + w_a1 - w_a9 >= -1281.952279392162
 c309: K_a9_a1 - 1282 m_a1_proc_0 - 1282 m_a9_proc_0 + w_a1 - w_a9 >= 
       -2563.952279392162
 c310: K_a9_a2 - 1282 m_a2_proc_0 - 1282 m_a9_proc_0 + w_a2 - w_a9 >= 
       -2563.952279392162
 c311: K_a9_a3 - 1282 m_a3_proc_0 - 1282 m_a9_proc_0 + w_a3 - w_a9 >= 
       -2563.952279392162
 c312: K_a9_a4 - 1282 m_a4_proc_0 - 1282 m_a9_proc_0 + w_a4 - w_a9 >= 
       -2563.952279392162
 c313: K_a9_a5 - 1282 m_a5_proc_0 - 1282 m_a9_proc_0 + w_a5 - w_a9 >= 
       -2563.952279392162
 c314: K_a9_a6 - 1282 m_a6_proc_0 - 1282 m_a9_proc_0 + w_a6 - w_a9 >= 
       -2563.952279392162
 c315: K_a9_a8 - 1282 m_a8_proc_0 - 1282 m_a9_proc_0 + w_a8 - w_a9 >= 
       -2563.952279392162
 c316: - 1282 m_a9_proc_1 + w_a1 - w_a9 >= -1281.892561983471
 c317: K_a9_a0 - 1282 m_a0_proc_1 - 1282 m_a9_proc_1 + w_a0 - w_a9 >= 
       -2563.892561983471
 c318: K_a9_a1 - 1282 m_a1_proc_1 - 1282 m_a9_proc_1 + w_a1 - w_a9 >= 
       -2563.892561983471
 c319: K_a9_a4 - 1282 m_a4_proc_1 - 1282 m_a9_proc_1 + w_a4 - w_a9 >= 
       -2563.892561983471
 c320: K_a9_a5 - 1282 m_a5_proc_1 - 1282 m_a9_proc_1 + w_a5 - w_a9 >= 
       -2563.892561983471
 c321: K_a9_a6 - 1282 m_a6_proc_1 - 1282 m_a9_proc_1 + w_a6 - w_a9 >= 
       -2563.892561983471
 c322: K_a9_a7 - 1282 m_a7_proc_1 - 1282 m_a9_proc_1 + w_a7 - w_a9 >= 
       -2563.892561983471
 c323: - 1282 m_a9_proc_3 + w_a1 - w_a9 >= -1281.974851150804
 c324: K_a9_a0 - 1282 m_a0_proc_3 - 1282 m_a9_proc_3 + w_a0 - w_a9 >= 
       -2563.974851150804
 c325: K_a9_a2 - 1282 m_a2_proc_3 - 1282 m_a9_proc_3 + w_a2 - w_a9 >= 
       -2563.974851150804
 c326: K_a9_a3 - 1282 m_a3_proc_3 - 1282 m_a9_proc_3 + w_a3 - w_a9 >= 
       -2563.974851150804
 c327: K_a9_a4 - 1282 m_a4_proc_3 - 1282 m_a9_proc_3 + w_a4 - w_a9 >= 
       -2563.974851150804
 c328: K_a9_a5 - 1282 m_a5_proc_3 - 1282 m_a9_proc_3 + w_a5 - w_a9 >= 
       -2563.974851150804
 c329: K_a9_a6 - 1282 m_a6_proc_3 - 1282 m_a9_proc_3 + w_a6 - w_a9 >= 
       -2563.974851150804
 c330: K_a9_a8 - 1282 m_a8_proc_3 - 1282 m_a9_proc_3 + w_a8 - w_a9 >= 
       -2563.974851150804
 c331: z - 0.000000000001 K_a9_a1 + 0.000000000816 m_a1_proc_1
       - 0.000950570342 m_a8_proc_0 - 0.000921658986 m_a8_proc_2
       - 0.000780031201 m_a8_proc_3 - 0.000000000342 m_a9_proc_0
       + 0.000000000816 m_a9_proc_1 - 0.000000000180 m_a9_proc_3 <= 
       0.000000001631
 c332: z - 0.000118680275 K_a7_a5 - 0.000118680275 K_a9_a1
       - 0.023261333966 m_a0_proc_3 + 0.152148112984 m_a1_proc_0
       - 0.000237360551 m_a3_proc_0 - 0.025872300024 m_a4_proc_0
       - 0.051269878946 m_a4_proc_2 - 0.041656776644 m_a4_proc_3
       + 0.152148112984 m_a5_proc_1 + 0.152148112984 m_a7_proc_1
       + 0.152148112984 m_a9_proc_0 - 0.063731307857 m_a9_proc_1
       - 0.063731307857 m_a9_proc_3 <= 0.608592451934
 c333: z - 0.000000090870 K_a2_a0 + 0.000000090870 K_a2_a1
       + 0.000116495032 m_a0_proc_2 - 0.000116495032 m_a1_proc_0
       - 0.000186737357 m_a2_proc_0 + 0.000116495032 m_a2_proc_2
       - 0.000721832717 m_a3_proc_0 <= 0.000360916359

Bounds
 -inf <= K_a0_a1 <= 1000000000
 -inf <= K_a0_a2 <= 1000000000
 -inf <= K_a0_a3 <= 1000000000
 -inf <= K_a0_a4 <= 1000000000
 -inf <= K_a0_a5 <= 1000000000
 -inf <= K_a0_a6 <= 1000000000
 -inf <= K_a0_a7 <= 1000000000
 -inf <= K_a0_a8 <= 1000000000
 -inf <= K_a0_a9 <= 1000000000
 -inf <= K_a1_a0 <= 1000000000
 -inf <= K_a1_a2 <= 1000000000
 -inf <= K_a1_a3 <= 1000000000
 -inf <= K_a1_a4 <= 1000000000
 -inf <= K_a1_a5 <= 1000000000
 -inf <= K_a1_a6 <= 1000000000
 -inf <= K_a1_a7 <= 1000000000
 -inf <= K_a1_a8 <= 1000000000
 -inf <= K_a1_a9 <= 1000000000
 -inf <= K_a2_a0 <= 1000000000
 -inf <= K_a2_a1 <= 1000000000
 -inf <= K_a2_a3 <= 1000000000
 -inf <= K_a2_a4 <= 1000000000
 -inf <= K_a2_a5 <= 1000000000
 -inf <= K_a2_a6 <= 1000000000
 -inf <= K_a2_a7 <= 1000000000
 -inf <= K_a2_a8 <= 1000000000
 -inf <= K_a2_a9 <= 1000000000
 -inf <= K_a3_a0 <= 1000000000
 -inf <= K_a3_a1 <= 1000000000
 -inf <= K_a3_a2 <= 1000000000
 -inf <= K_a3_a4 <= 1000000000
 -inf <= K_a3_a5 <= 1000000000
 -inf <= K_a3_a6 <= 1000000000
 -inf <= K_a3_a7 <= 1000000000
 -inf <= K_a3_a8 <= 1000000000
 -inf <= K_a3_a9 <= 1000000000
 -inf <= K_a4_a0 <= 1000000000
 -inf <= K_a4_a1 <= 1000000000
 -inf <= K_a4_a2 <= 1000000000
 -inf <= K_a4_a3 <= 1000000000
 -inf <= K_a4_a5 <= 1000000000
 -inf <= K_a4_a6 <= 1000000000
 -inf <= K_a4_a7 <= 1000000000
 -inf <= K_a4_a8 <= 1000000000
 -inf <= K_a4_a9 <= 1000000000
 -inf <= K_a5_a0 <= 1000000000
 -inf <= K_a5_a1 <= 1000000000
 -inf <= K_a5_a2 <= 1000000000
 -inf <= K_a5_a3 <= 1000000000
 -inf <= K_a5_a4 <= 1000000000
 -inf <= K_a5_a6 <= 1000000000
 -inf <= K_a5_a7 <= 1000000000
 -inf <= K_a5_a8 <= 1000000000
 -inf <= K_a5_a9 <= 1000000000
 -inf <= K_a6_a0 <= 1000000000
 -inf <= K_a6_a1 <= 1000000000
 -inf <= K_a6_a2 <= 1000000000
 -inf <= K_a6_a3 <= 1000000000
 -inf <= K_a6_a4 <= 1000000000
 -inf <= K_a6_a5 <= 1000000000
 -inf <= K_a6_a7 <= 1000000000
 -inf <= K_a6_a8 <= 1000000000
 -inf <= K_a6_a9 <= 1000000000
 -inf <= K_a7_a0 <= 1000000000
 -inf <= K_a7_a1 <= 1000000000
 -inf <= K_a7_a2 <= 1000000000
 -inf <= K_a7_a3 <= 1000000000
 -inf <= K_a7_a4 <= 1000000000
 -inf <= K_a7_a5 <= 1000000000
 -inf <= K_a7_a6 <= 1000000000
 -inf <= K_a7_a8 <= 1000000000
 -inf <= K_a7_a9 <= 1000000000
 -inf <= K_a8_a0 <= 1000000000
 -inf <= K_a8_a1 <= 1000000000
 -inf <= K_a8_a2 <= 1000000000
 -inf <= K_a8_a3 <= 1000000000
 -inf <= K_a8_a4 <= 1000000000
 -inf <= K_a8_a5 <= 1000000000
 -inf <= K_a8_a6 <= 1000000000
 -inf <= K_a8_a7 <= 1000000000
 -inf <= K_a8_a9 <= 1000000000
 -inf <= K_a9_a0 <= 1000000000
 -inf <= K_a9_a1 <= 1000000000
 -inf <= K_a9_a2 <= 1000000000
 -inf <= K_a9_a3 <= 1000000000
 -inf <= K_a9_a4 <= 1000000000
 -inf <= K_a9_a5 <= 1000000000
 -inf <= K_a9_a6 <= 1000000000
 -inf <= K_a9_a7 <= 1000000000
 -inf <= K_a9_a8 <= 1000000000
 0 <= m_a0_proc_1 <= 1
 0 <= m_a0_proc_2 <= 1
 0 <= m_a0_proc_3 <= 1
 0 <= m_a1_proc_0 <= 1
 0 <= m_a1_proc_1 <= 1
 0 <= m_a2_proc_0 <= 1
 0 <= m_a2_proc_2 <= 1
 0 <= m_a2_proc_3 <= 1
 0 <= m_a3_proc_0 <= 1
 0 <= m_a3_proc_2 <= 1
 0 <= m_a3_proc_3 <= 1
 0 <= m_a4_proc_0 <= 1
 0 <= m_a4_proc_1 <= 1
 0 <= m_a4_proc_2 <= 1
 0 <= m_a4_proc_3 <= 1
 0 <= m_a5_proc_0 <= 1
 0 <= m_a5_proc_1 <= 1
 0 <= m_a5_proc_2 <= 1
 0 <= m_a5_proc_3 <= 1
 0 <= m_a6_proc_0 <= 1
 0 <= m_a6_proc_1 <= 1
 0 <= m_a6_proc_3 <= 1
 0 <= m_a7_proc_1 <= 1
 0 <= m_a8_proc_0 <= 1
 0 <= m_a8_proc_2 <= 1
 0 <= m_a8_proc_3 <= 1
 0 <= m_a9_proc_0 <= 1
 0 <= m_a9_proc_1 <= 1
 0 <= m_a9_proc_3 <= 1

Binaries
 m_a0_proc_1 m_a0_proc_2 m_a0_proc_3 m_a1_proc_0 m_a1_proc_1 m_a2_proc_0
 m_a2_proc_2 m_a2_proc_3 m_a3_proc_0 m_a3_proc_2 m_a3_proc_3 m_a4_proc_0
 m_a4_proc_1 m_a4_proc_2 m_a4_proc_3 m_a5_proc_0 m_a5_proc_1 m_a5_proc_2
 m_a5_proc_3 m_a6_proc_0 m_a6_proc_1 m_a6_proc_3 m_a7_proc_1 m_a8_proc_0
 m_a8_proc_2 m_a8_proc_3 m_a9_proc_0 m_a9_proc_1 m_a9_proc_3

Generals
 K_a0_a1 K_a0_a2 K_a0_a3 K_a0_a4 K_a0_a5 K_a0_a6 K_a0_a7 K_a0_a8 K_a0_a9 K_a1_a0
 K_a1_a2 K_a1_a3 K_a1_a4 K_a1_a5 K_a1_a6 K_a1_a7 K_a1_a8 K_a1_a9 K_a2_a0 K_a2_a1
 K_a2_a3 K_a2_a4 K_a2_a5 K_a2_a6 K_a2_a7 K_a2_a8 K_a2_a9 K_a3_a0 K_a3_a1 K_a3_a2
 K_a3_a4 K_a3_a5 K_a3_a6 K_a3_a7 K_a3_a8 K_a3_a9 K_a4_a0 K_a4_a1 K_a4_a2 K_a4_a3
 K_a4_a5 K_a4_a6 K_a4_a7 K_a4_a8 K_a4_a9 K_a5_a0 K_a5_a1 K_a5_a2 K_a5_a3 K_a5_a4
 K_a5_a6 K_a5_a7 K_a5_a8 K_a5_a9 K_a6_a0 K_a6_a1 K_a6_a2 K_a6_a3 K_a6_a4 K_a6_a5
 K_a6_a7 K_a6_a8 K_a6_a9 K_a7_a0 K_a7_a1 K_a7_a2 K_a7_a3 K_a7_a4 K_a7_a5 K_a7_a6
 K_a7_a8 K_a7_a9 K_a8_a0 K_a8_a1 K_a8_a2 K_a8_a3 K_a8_a4 K_a8_a5 K_a8_a6 K_a8_a7
 K_a8_a9 K_a9_a0 K_a9_a1 K_a9_a2 K_a9_a3 K_a9_a4 K_a9_a5 K_a9_a6 K_a9_a7 K_a9_a8
End
