benchmark/results/graph__10-1000-0.10-04_18/graph__10-1000-0.10-04_18_Quinton_Benders_master.txt
solution for: Quinton Benders_master
objective: 1e+20
status: OPTIMAL_SOLUTION(2)
K_a0_a1=1
K_a0_a2=999998717
K_a0_a3=1282
K_a0_a4=1282
K_a0_a5=999997435
K_a0_a6=999998717
K_a0_a8=1282
K_a0_a9=999997435
K_a1_a2=999999999
K_a1_a3=2564
K_a1_a4=1282
K_a1_a5=999997435
K_a1_a6=999998717
K_a1_a8=2564
K_a1_a9=999997435
K_a2_a0=-999998716
K_a2_a1=-999999998
K_a2_a3=-999997434
K_a2_a4=-999996152
K_a2_a5=1283
K_a2_a6=1
K_a2_a7=1000000000
K_a2_a8=-999997435
K_a2_a9=1282
K_a3_a0=-1281
K_a3_a1=-2563
K_a3_a2=999997435
K_a3_a4=1282
K_a3_a5=999998717
K_a3_a6=999997435
K_a3_a7=1000000000
K_a3_a9=999998717
K_a4_a0=-1281
K_a4_a1=-1281
K_a4_a2=999996153
K_a4_a3=-1281
K_a4_a5=999998717
K_a4_a6=999998717
K_a4_a7=1282
K_a4_a8=1282
K_a4_a9=999998717
K_a5_a0=-999997434
K_a5_a1=-999997434
K_a5_a2=-1282
K_a5_a3=-999998716
K_a5_a4=-999998716
K_a5_a6=1282
K_a5_a7=-999997435
K_a5_a8=-999996153
K_a6_a0=-999998716
K_a6_a1=-999998716
K_a6_a3=-999997434
K_a6_a4=-999998716
K_a6_a5=-1281
K_a6_a7=-999996153
K_a6_a8=-999997435
K_a6_a9=1282
K_a7_a0=1
K_a7_a1=1
K_a7_a2=1000000000
K_a7_a3=1000000000
K_a7_a4=-1281
K_a7_a5=999997436
K_a7_a6=999996154
K_a7_a8=1000000000
K_a7_a9=999997436
K_a8_a0=-1281
K_a8_a1=-2563
K_a8_a2=999997436
K_a8_a3=1
K_a8_a4=-1281
K_a8_a5=999996154
K_a8_a6=999997436
K_a8_a7=1000000000
K_a8_a9=999998718
K_a9_a0=-999997434
K_a9_a1=-999997434
K_a9_a2=-1281
K_a9_a3=-999998716
K_a9_a4=-999998716
K_a9_a5=1
K_a9_a6=-1281
K_a9_a7=-999997435
K_a9_a8=-999998717
m_a0_proc_1=1
m_a1_proc_1=1
m_a2_proc_3=1
m_a3_proc_3=1
m_a4_proc_0=1
m_a5_proc_1=1
m_a6_proc_3=1
m_a7_proc_1=1
m_a8_proc_3=1
m_a9_proc_1=1
z=99999999989999992832.000
w_a0=999997434.894
w_a1=999997434.797
w_a2=0.164
w_a3=999997434.992
w_a4=999997435.082
w_a6=0.083
w_a7=999997435.303
w_a8=999997435.189
w_a9=0.164
